benchmarks_vrp/CMT12/min_c/CMT12_7.vrp
NAME: CMT12_7
TYPE: CVRP
COMMENT: 819.56 - Cluster Nr.7
DIMENSION: 9
CAPACITY: 200
EDGE_WEIGHT_TYPE: EUC_2D
NODE_COORD_TYPE: TWOD_COORDS
NODE_COORD_SECTION: 
8 38 15
1 40 50
6 40 5
5 44 5
2 42 15
3 38 5
4 40 15
7 42 10
9 35 5
DEPOT_SECTION: 
1
-1
DEMAND_SECTION: 
3 30
7 40
8 10
2 10
1 0
9 20
4 40
5 20
6 30
EOF
