benchmarks_vrp/CMT12/min_c/CMT12_7.tour
NAME: CMT12_7 solution
TYPE: TOUR
TOUR_SECTION:
1 2 4 7 5 6 3 9 8 -1
-1
EOF